2 10
330 258 
0 27 41 4 59 93 10 2
1 60 81 76 24 33 63 1
2 45 67 46 38 47 16 2
3 89 92 66 39 8 88 2
4 67 69 43 20 76 88 2
5 98 19 99 65 14 78 1
6 99 70 47 97 93 35 2
7 29 97 69 35 98 66 1
8 60 86 20 53 89 12 1
9 8 39 68 86 49 79 1
